db/data/24973234829993199516737196812214629895.z3.out
sat
-------------------
226.743831297
